 200 82 
 20 21 91 25 7 80 78 86 35 48 8 1 
 52 92 45 100 25 43 68 36 76 41 97 86 
 62 72 26 15 19 61 64 78 6 20 73 80 
 24 54 53 70 81 47 4 6 70 55 58 95 
 75 36 88 26 95 41 67 83 24 67 78 22 
 45 88 32 41 98 46 98 43 96 57 38 50 
 23 52 15 89 16 55 46 74 68 23 
 26 
 2 4 7 13 18 20 21 24 27 28 32 36 
 48 49 53 55 60 61 62 63 65 67 68 72 
 75 80 
 51 
 1 4 5 6 8 9 10 11 12 13 15 16 
 18 19 20 22 23 24 25 26 27 29 31 32 
 34 35 37 39 41 42 43 44 45 48 50 52 
 54 56 57 59 60 61 62 68 71 72 73 75 
 77 78 80 
 16 
 5 6 12 16 23 32 34 44 47 48 55 59 
 60 63 68 81 
 74 
 1 2 3 4 5 6 7 8 9 10 11 12 
 13 14 15 17 18 19 20 21 22 23 24 25 
 26 27 28 29 30 31 32 33 34 35 36 37 
 38 39 40 41 42 43 44 45 46 49 50 51 
 53 55 56 57 59 61 62 63 64 65 66 67 
 68 69 70 71 72 73 74 75 77 78 79 80 
 81 82 
 30 
 1 5 9 10 13 14 19 21 24 27 28 33 
 39 41 48 50 52 55 60 63 65 66 67 69 
 71 73 76 77 80 81 
 11 
 2 4 19 20 22 25 29 50 54 70 82 
 38 
 5 6 7 11 16 18 19 22 23 25 28 29 
 32 34 36 38 40 41 44 45 47 48 49 52 
 57 58 61 64 66 68 70 71 72 74 77 78 
 80 82 
 24 
 3 4 9 12 13 18 19 20 22 24 29 35 
 42 43 45 51 53 54 56 68 70 73 78 81 
 6 
 5 10 24 58 68 80 
 37 
 2 3 6 7 8 9 14 16 18 19 23 24 
 26 27 28 30 32 34 36 37 39 42 43 46 
 47 48 49 51 53 58 61 64 66 69 76 80 
 81 
 27 
 2 3 5 9 16 18 23 24 29 32 36 39 
 40 42 44 50 52 57 58 59 68 70 72 73 
 76 79 80 
 34 
 5 7 9 10 11 16 17 21 24 33 34 35 
 37 38 39 42 43 48 49 52 54 55 57 58 
 59 61 62 64 65 67 70 75 77 80 
 57 
 1 2 3 6 7 8 9 10 11 12 13 14 
 16 18 19 20 21 23 24 25 27 29 30 32 
 35 36 37 39 40 41 43 44 45 46 47 48 
 49 51 52 54 55 56 57 58 60 61 62 63 
 64 66 69 71 72 73 74 75 82 
 46 
 6 8 9 10 13 14 15 19 20 21 22 23 
 24 26 27 30 33 36 38 39 40 42 43 44 
 46 47 50 51 52 53 54 56 58 60 63 66 
 67 69 70 71 74 76 79 80 81 82 
 20 
 5 10 13 19 26 32 35 39 40 42 43 45 
 46 53 58 59 60 66 68 69 
 25 
 1 3 5 7 14 15 18 20 21 23 25 26 
 31 35 39 40 43 44 49 50 60 66 69 70 
 81 
 78 
 1 3 4 5 6 7 8 9 10 11 12 13 
 14 15 16 18 19 20 21 22 23 24 25 26 
 27 28 29 30 31 32 33 34 35 36 37 38 
 39 40 41 43 44 45 46 47 48 49 50 51 
 52 53 54 55 56 57 58 59 60 61 62 63 
 64 65 66 67 68 69 70 71 72 73 74 75 
 76 77 78 79 80 82 
 5 
 1 14 15 37 63 
 73 
 1 2 3 4 5 6 7 8 9 10 11 13 
 14 15 16 17 18 19 20 21 22 23 24 25 
 27 28 29 30 31 32 33 34 35 36 37 38 
 39 40 41 42 43 44 45 46 47 49 50 51 
 53 54 55 56 57 59 60 61 63 64 66 68 
 69 70 71 73 74 75 76 77 78 79 80 81 
 82 
 23 
 1 3 6 7 9 11 15 21 26 28 29 32 
 48 56 58 59 63 65 67 71 75 76 80 
 58 
 1 3 4 6 7 10 12 13 14 15 16 18 
 21 22 23 24 25 26 27 28 29 31 32 34 
 35 36 38 40 41 42 44 45 46 49 50 51 
 52 53 55 57 59 60 61 62 63 64 66 67 
 68 69 70 73 75 76 77 78 79 81 
 55 
 1 2 3 4 6 7 9 11 12 14 15 20 
 21 22 23 24 25 26 27 28 29 30 33 34 
 35 37 38 39 40 41 43 44 45 47 48 49 
 50 51 52 54 57 60 61 62 63 65 67 68 
 69 74 76 77 79 81 82 
 36 
 1 3 7 11 12 13 14 16 17 25 27 28 
 32 33 34 35 39 41 42 47 48 49 51 54 
 56 58 59 61 64 66 69 71 77 79 81 82 
 35 
 1 6 7 8 16 18 20 21 22 25 27 28 
 30 31 33 35 40 41 44 46 50 52 56 59 
 65 66 67 70 71 72 74 77 78 81 82 
 22 
 1 3 6 9 10 22 23 33 34 39 44 47 
 51 63 64 66 73 74 75 76 79 80 
 31 
 7 8 9 10 12 15 19 25 26 31 34 35 
 36 38 40 41 44 47 48 49 50 52 56 62 
 63 65 68 73 75 76 78 
 67 
 1 2 3 4 5 6 7 8 9 11 12 13 
 14 15 16 17 20 21 22 23 24 26 27 28 
 29 30 31 32 33 35 39 40 42 43 44 45 
 47 48 49 50 51 52 53 55 56 57 58 59 
 60 61 62 63 65 66 67 68 70 72 73 74 
 75 77 78 79 80 81 82 
 2 
 1 77 
 77 
 1 3 4 5 6 7 8 9 10 11 12 13 
 14 15 16 17 18 19 20 21 22 23 24 25 
 26 27 29 30 31 32 33 34 35 36 37 38 
 39 40 41 42 43 44 45 46 47 48 51 52 
 53 54 55 56 57 58 59 60 61 62 63 64 
 65 66 67 68 69 70 71 73 74 75 76 77 
 78 79 80 81 82 
 22 
 6 13 14 16 21 23 27 28 36 37 39 40 
 44 56 57 59 64 65 67 70 77 78 
 38 
 2 5 6 7 8 10 11 13 15 16 17 18 
 19 25 26 27 28 30 31 36 39 44 45 49 
 51 54 57 58 61 62 63 65 74 75 77 78 
 79 82 
 39 
 1 2 3 5 6 10 11 12 15 16 20 21 
 22 24 27 30 31 33 35 38 41 43 46 47 
 55 58 60 62 64 66 67 68 69 70 71 72 
 73 75 79 
 55 
 1 2 4 5 6 8 9 10 12 14 16 17 
 20 21 25 26 27 28 29 31 32 35 38 39 
 41 42 43 44 45 46 48 49 52 55 57 58 
 60 61 62 63 64 65 66 68 69 70 71 74 
 75 76 77 78 80 81 82 
 27 
 1 10 13 14 15 21 25 34 42 47 51 52 
 53 56 58 59 60 61 63 64 65 69 71 76 
 77 78 80 
 80 
 1 2 3 4 5 6 7 8 9 10 11 12 
 13 14 15 16 17 18 19 20 21 22 23 24 
 25 26 27 28 29 30 31 32 33 34 36 37 
 38 39 40 41 42 43 44 45 46 47 48 49 
 50 51 52 53 54 55 57 58 59 60 61 62 
 63 64 65 66 67 68 69 70 71 72 73 74 
 75 76 77 78 79 80 81 82 
 21 
 5 6 11 13 24 25 35 36 39 44 45 49 
 55 56 60 63 65 71 77 78 79 
 61 
 1 2 3 5 6 8 9 11 12 13 14 16 
 17 18 19 20 22 23 24 25 26 29 30 32 
 33 34 35 37 40 41 43 44 45 46 47 49 
 50 52 55 57 60 61 62 63 64 65 66 67 
 68 69 70 71 73 75 76 77 78 79 80 81 
 82 
 32 
 6 8 10 11 12 19 26 30 31 36 37 39 
 40 41 43 44 45 46 48 52 54 57 58 66 
 68 69 71 72 73 76 79 82 
 72 
 1 2 3 4 5 6 7 8 9 10 11 12 
 13 16 17 20 22 23 24 26 27 28 29 30 
 31 32 33 34 35 36 37 38 39 40 41 42 
 43 44 46 47 48 49 50 51 52 53 54 55 
 56 59 60 61 62 63 64 65 66 67 68 69 
 70 71 72 73 74 75 76 77 78 79 80 81 
 36 
 1 3 6 7 10 13 15 16 21 22 23 24 
 25 26 30 31 33 34 35 39 41 42 43 47 
 48 52 55 56 62 63 64 69 70 72 77 79 
 59 
 1 2 3 5 7 8 10 11 12 13 14 16 
 17 18 19 20 22 24 26 27 28 29 30 31 
 33 34 35 36 38 39 40 43 44 45 47 48 
 49 51 53 54 56 57 58 60 63 64 66 67 
 69 70 72 73 74 75 76 77 78 79 80 
 42 
 4 5 6 8 10 12 13 16 17 18 22 26 
 28 29 31 32 34 37 40 41 43 46 49 53 
 56 57 58 60 61 62 64 65 66 67 69 70 
 72 74 75 78 79 81 
 61 
 1 2 3 4 6 8 9 10 11 13 14 16 
 17 18 20 22 23 24 25 26 27 29 30 31 
 32 33 35 36 37 38 39 40 42 43 44 45 
 46 47 48 50 51 55 56 57 59 60 61 62 
 63 64 65 66 67 68 69 71 73 75 76 77 
 82 
 22 
 2 3 4 7 10 23 24 34 37 38 40 41 
 43 46 49 51 55 60 61 66 70 80 
 43 
 1 2 3 4 6 7 9 10 14 15 17 20 
 21 23 25 26 27 30 32 33 35 36 37 39 
 40 41 42 43 44 48 56 59 61 62 63 64 
 70 72 73 75 77 79 81 
 14 
 1 6 7 9 20 23 27 33 36 45 49 73 
 75 78 
 26 
 5 6 7 8 11 12 19 24 27 30 31 35 
 36 39 43 44 46 51 53 54 62 63 68 74 
 75 76 
 33 
 2 5 6 9 10 12 13 16 17 23 26 28 
 31 33 34 35 36 37 39 41 42 44 45 46 
 60 62 63 66 72 74 78 79 81 
 81 
 1 2 3 4 5 6 7 8 9 10 11 12 
 13 14 15 16 17 18 19 20 21 22 23 24 
 25 27 28 29 30 31 32 33 34 35 36 37 
 38 39 40 41 42 43 44 45 46 47 48 49 
 50 51 52 53 54 55 56 57 58 59 60 61 
 62 63 64 65 66 67 68 69 70 71 72 73 
 74 75 76 77 78 79 80 81 82 
 23 
 7 8 9 24 25 31 36 39 40 42 47 48 
 49 50 53 55 56 57 58 62 68 73 77 
 53 
 1 4 7 8 9 10 11 12 13 16 17 18 
 21 22 23 24 25 26 28 29 30 31 32 34 
 35 36 39 40 41 42 45 46 48 50 52 53 
 54 56 59 60 61 62 64 65 67 69 70 72 
 73 74 75 76 80 
 20 
 7 14 16 20 28 32 37 38 39 40 41 44 
 54 55 58 73 74 76 80 82 
 44 
 1 2 6 7 8 10 16 20 21 22 23 24 
 25 26 28 29 30 31 32 33 34 35 36 41 
 43 44 45 46 47 50 52 54 55 56 57 59 
 64 65 66 73 76 77 78 79 
 48 
 2 5 6 7 8 10 11 12 13 15 16 18 
 20 22 23 24 26 29 31 33 35 36 37 38 
 39 43 45 46 47 48 49 50 52 56 57 62 
 63 65 67 68 69 70 71 73 76 79 80 81 
 29 
 2 7 10 13 15 17 19 21 32 33 34 37 
 43 44 48 53 55 56 57 58 59 65 66 67 
 71 73 74 75 80 
 57 
 1 2 3 4 6 7 8 10 11 12 13 14 
 16 19 20 21 24 27 28 29 30 31 33 34 
 35 37 38 40 42 43 44 45 46 47 48 49 
 50 52 53 55 58 61 62 63 64 65 66 68 
 70 71 72 74 75 76 79 80 82 
 40 
 3 7 8 11 13 14 17 18 19 23 28 29 
 32 34 36 38 41 43 44 47 49 51 52 53 
 54 57 60 61 63 64 66 67 68 70 71 72 
 73 80 81 82 
 52 
 3 5 6 7 8 9 12 13 14 15 16 18 
 19 20 21 22 23 24 25 26 28 29 31 33 
 35 36 37 40 44 46 47 48 49 50 51 52 
 53 54 57 58 59 60 63 67 68 70 71 72 
 76 77 78 80 
 39 
 1 3 5 6 9 11 12 13 15 16 18 20 
 21 22 25 26 29 30 34 35 40 41 43 44 
 46 47 49 50 51 52 53 54 55 56 62 64 
 67 69 80 
 52 
 1 2 4 6 9 10 12 13 14 16 20 21 
 22 25 26 29 33 34 35 36 37 38 39 41 
 42 43 44 45 46 48 50 51 52 54 56 57 
 59 62 63 64 66 67 68 69 71 72 73 75 
 76 77 81 82 
 27 
 3 5 7 8 10 14 15 16 18 19 23 27 
 29 34 36 39 41 43 51 56 58 59 64 67 
 69 76 78 
 10 
 2 10 12 16 28 40 47 56 62 64 
 58 
 1 2 3 4 5 7 11 12 13 14 15 16 
 18 19 21 22 23 25 27 30 33 35 36 38 
 40 41 45 46 47 48 49 50 51 52 53 54 
 57 58 60 61 62 63 64 65 66 67 68 69 
 71 73 74 75 76 77 79 80 81 82 
 56 
 1 2 3 5 6 7 8 11 12 13 16 17 
 18 19 20 21 22 23 25 26 28 29 30 31 
 32 33 34 35 37 38 39 41 43 44 47 48 
 49 50 51 53 56 57 58 59 60 62 67 70 
 71 72 73 76 78 79 80 81 
 23 
 8 13 21 23 24 25 31 33 39 44 45 46 
 47 48 49 55 56 57 61 63 77 81 82 
 13 
 3 5 8 15 18 30 38 50 52 55 56 68 
 81 
 11 
 3 10 21 27 32 36 39 47 60 66 70 
 53 
 2 3 4 5 7 9 10 11 17 18 20 21 
 23 24 25 27 28 29 30 31 34 35 36 38 
 39 40 42 44 45 46 47 48 49 50 51 52 
 54 55 56 57 59 61 63 66 68 70 71 72 
 73 74 75 77 80 
 43 
 3 4 8 10 11 12 13 16 18 20 21 22 
 24 25 26 27 29 33 35 36 37 38 39 40 
 41 42 43 45 47 48 52 53 61 62 63 66 
 67 68 72 75 76 78 82 
 31 
 4 5 6 7 12 13 14 15 18 19 22 23 
 26 28 39 40 44 46 47 50 52 57 60 65 
 66 69 72 73 77 78 80 
 16 
 2 10 21 36 39 40 45 53 54 57 58 64 
 70 74 76 78 
 41 
 1 3 5 8 9 10 11 12 18 22 25 28 
 30 34 35 36 38 40 41 43 47 49 50 51 
 53 54 55 56 59 60 63 64 65 66 67 76 
 77 78 80 81 82 
 15 
 2 9 14 16 19 23 27 31 35 38 46 53 
 57 66 77 
 48 
 3 4 5 8 9 10 11 12 13 14 15 16 
 17 19 22 25 26 27 28 29 30 31 36 37 
 38 41 43 44 45 46 47 48 52 53 55 56 
 57 62 63 64 66 68 71 73 76 77 78 80 
 74 
 1 2 3 4 5 6 7 8 9 10 11 12 
 13 14 15 16 17 18 19 20 21 22 23 24 
 26 27 29 30 31 32 33 34 35 36 37 39 
 40 41 42 43 46 47 48 49 50 51 52 53 
 54 55 56 57 58 60 61 62 63 65 66 67 
 68 69 70 72 73 74 75 76 77 78 79 80 
 81 82 
 59 
 1 3 4 5 6 9 11 12 14 15 16 17 
 19 21 22 23 24 25 26 27 29 30 32 33 
 34 35 36 38 39 40 41 42 43 44 45 46 
 47 50 51 52 54 55 56 57 59 61 62 63 
 64 66 67 68 70 71 73 75 76 78 82 
 46 
 1 2 3 5 6 9 10 11 12 14 16 17 
 18 19 21 22 23 24 26 27 30 31 32 35 
 37 39 41 44 45 47 48 51 60 62 65 67 
 69 70 71 72 73 76 77 78 79 80 
 78 
 1 2 3 4 5 6 7 8 9 10 11 12 
 13 14 15 16 17 18 19 20 21 22 23 24 
 25 26 27 28 29 30 31 32 33 34 35 36 
 37 38 39 42 43 44 45 46 47 48 49 50 
 51 52 53 55 56 57 58 59 60 61 62 63 
 64 65 67 68 69 70 71 72 73 74 75 76 
 77 78 79 80 81 82 
 53 
 3 4 5 6 8 12 13 14 15 16 19 20 
 21 22 23 24 25 26 28 30 31 36 37 38 
 39 40 41 43 44 45 46 47 48 49 51 52 
 55 56 57 58 59 60 61 63 64 67 69 70 
 71 77 78 81 82 
 73 
 1 2 3 4 5 6 7 8 9 10 11 12 
 14 15 16 17 18 19 20 21 23 24 26 27 
 28 29 30 31 32 33 34 35 36 37 38 39 
 41 42 43 44 45 46 47 48 49 50 51 52 
 53 54 55 56 57 58 59 60 61 62 63 64 
 65 67 68 70 71 72 73 75 76 77 78 79 
 80 
 74 
 2 3 4 5 6 7 8 9 10 11 13 14 
 15 16 17 18 19 20 21 24 25 26 27 28 
 30 31 32 33 35 36 37 38 39 40 41 43 
 44 45 46 47 48 49 50 51 52 54 55 56 
 57 58 59 60 61 62 63 64 65 66 67 68 
 69 70 71 72 73 74 75 76 77 78 79 80 
 81 82 
 76 
 1 2 4 5 6 7 8 9 10 11 12 13 
 14 15 16 17 18 19 20 21 22 23 24 25 
 27 28 30 31 32 33 34 35 36 37 38 39 
 40 41 42 43 44 45 46 47 49 50 52 53 
 54 55 56 57 58 59 60 61 62 63 64 65 
 66 67 68 69 70 71 72 73 74 75 76 78 
 79 80 81 82 
 23 
 4 6 7 8 16 18 22 26 33 34 36 38 
 45 47 53 56 60 65 68 69 75 77 78 
 75 
 1 3 4 5 6 7 9 11 12 13 15 16 
 17 19 20 21 22 24 25 26 27 28 29 30 
 31 32 33 34 35 36 37 38 39 40 41 42 
 43 44 45 46 47 49 50 51 52 53 54 55 
 56 57 58 59 60 61 62 63 64 65 66 67 
 68 69 70 71 72 73 74 75 76 77 78 79 
 80 81 82 
 64 
 1 4 5 6 9 10 12 13 14 15 18 19 
 20 21 22 24 25 26 29 30 31 32 33 34 
 35 36 37 40 41 43 44 45 47 48 49 50 
 51 52 55 56 57 58 59 60 61 62 63 64 
 65 66 67 69 70 71 72 73 74 76 77 78 
 79 80 81 82 
 48 
 1 2 4 7 8 9 10 12 13 14 15 17 
 18 19 24 25 27 28 30 32 36 37 39 40 
 41 42 43 44 45 46 50 55 57 61 62 63 
 64 65 67 69 70 71 74 75 77 78 79 81 
 70 
 1 4 5 6 7 9 10 11 12 13 14 15 
 16 17 18 20 21 22 23 24 27 28 29 30 
 31 32 34 35 36 37 38 39 40 41 42 43 
 44 45 46 48 49 50 51 52 53 54 55 56 
 57 58 59 60 62 63 64 65 66 68 70 71 
 72 73 74 75 76 78 79 80 81 82 
 4 
 11 33 80 82 
 31 
 3 7 11 12 14 17 27 28 30 31 32 33 
 34 37 43 46 49 52 53 54 58 61 64 68 
 71 74 75 76 77 78 81 
 64 
 1 2 3 5 6 9 10 11 12 13 14 15 
 17 18 19 21 22 23 24 25 27 28 30 31 
 32 33 35 37 38 39 40 41 43 44 45 46 
 47 48 49 50 51 52 53 55 56 57 59 60 
 61 62 64 65 66 67 68 69 70 71 73 74 
 75 76 77 81 
 63 
 1 2 3 4 5 6 7 8 9 11 12 13 
 14 15 16 17 18 20 21 22 23 24 26 27 
 29 31 32 33 34 36 38 39 40 41 42 43 
 44 45 46 47 48 51 54 55 56 57 58 59 
 60 61 62 63 65 68 69 70 73 74 75 76 
 77 79 81 
 5 
 13 19 62 72 76 
 30 
 5 6 7 9 17 19 23 24 25 26 28 29 
 32 34 36 44 45 46 48 55 56 57 59 62 
 64 68 69 70 72 82 
 9 
 4 21 28 47 61 62 65 76 78 
 73 
 1 3 4 6 7 8 9 10 11 12 13 14 
 15 16 17 18 19 20 21 22 23 24 26 27 
 28 29 30 31 32 33 34 35 36 37 38 39 
 40 41 43 44 45 46 47 48 49 50 51 52 
 53 54 55 56 59 60 61 62 63 64 65 66 
 68 69 70 71 72 73 74 75 76 77 79 80 
 82 
 37 
 2 3 7 8 17 18 20 22 24 29 30 32 
 38 39 40 41 42 44 46 48 49 52 58 59 
 60 62 64 65 68 69 70 71 72 75 79 80 
 81 
 60 
 1 4 5 6 7 8 11 13 14 15 16 18 
 19 22 23 24 25 26 29 30 31 33 34 38 
 39 40 41 42 43 44 45 46 47 48 49 50 
 51 52 53 54 55 56 57 59 60 61 63 66 
 68 70 71 72 73 74 76 78 79 80 81 82 
 59 
 3 4 5 6 7 8 9 10 11 12 13 15 
 17 18 19 20 21 23 24 25 29 30 32 33 
 34 35 37 38 39 41 43 44 46 47 48 50 
 51 52 53 57 58 59 60 62 63 64 65 66 
 67 69 70 71 74 75 77 78 79 80 82 
 72 
 1 2 3 4 5 6 7 8 9 11 12 13 
 14 15 16 17 18 19 20 21 22 23 24 25 
 26 27 28 30 32 33 34 35 36 38 39 40 
 41 42 44 45 46 47 48 50 51 52 53 54 
 55 57 58 59 60 62 63 64 65 67 68 69 
 70 71 72 73 74 75 76 77 78 79 80 82 
 65 
 1 3 5 6 7 8 10 13 14 15 16 17 
 18 19 21 22 24 25 26 27 29 30 31 32 
 33 34 35 36 38 40 41 42 43 44 45 46 
 47 49 50 51 52 56 57 58 59 60 61 62 
 63 64 65 66 67 68 69 71 72 73 74 75 
 76 77 78 79 82 
 68 
 1 2 3 4 6 7 8 9 10 11 13 14 
 16 17 19 20 21 22 23 24 25 27 28 29 
 30 31 32 33 34 35 36 37 38 39 40 41 
 42 43 44 45 46 47 48 49 50 51 52 55 
 58 59 62 63 64 65 67 68 69 70 71 72 
 74 75 76 77 79 80 81 82 
 10 
 20 24 37 39 45 50 61 67 73 74 
 40 
 1 5 6 8 9 10 11 12 17 19 20 23 
 24 25 26 27 28 32 33 40 42 43 44 46 
 49 55 56 57 59 60 62 63 64 65 66 69 
 70 73 74 79 
 21 
 5 8 14 16 21 22 30 32 36 37 40 41 
 50 52 53 54 55 66 70 72 82 
 19 
 2 8 9 27 35 37 39 40 43 46 47 59 
 61 62 64 68 72 74 77 
 4 
 15 35 65 73 
 2 
 78 79 
 3 
 32 53 78 
 55 
 1 2 4 5 7 8 9 10 11 13 14 15 
 16 18 19 22 23 24 25 27 28 29 30 33 
 34 36 38 40 41 42 44 45 46 49 51 52 
 54 55 57 59 60 65 66 67 68 69 70 72 
 73 74 75 77 78 80 82 
 66 
 2 3 4 5 6 7 9 10 11 12 13 14 
 17 19 20 21 22 23 24 25 26 27 28 31 
 32 33 35 37 38 40 41 42 44 45 46 47 
 48 49 50 51 52 54 55 57 58 60 62 64 
 65 66 67 68 69 70 71 72 73 74 75 76 
 77 78 79 80 81 82 
 34 
 1 3 4 9 11 14 15 20 23 29 30 32 
 34 35 36 37 39 41 44 45 48 50 52 56 
 60 61 64 65 67 70 72 76 77 82 
 53 
 1 2 3 4 5 6 7 8 9 10 11 12 
 14 16 17 18 19 23 26 27 28 29 30 31 
 32 33 34 35 37 41 42 43 45 46 47 53 
 56 57 59 60 61 63 64 68 70 73 76 77 
 78 79 80 81 82 
 66 
 1 2 3 4 5 6 7 8 10 11 13 14 
 15 17 18 19 20 21 24 25 26 27 28 29 
 30 32 33 35 36 37 38 39 40 41 43 44 
 45 46 47 48 49 50 51 54 55 56 57 58 
 59 60 61 62 63 64 65 67 69 70 71 73 
 74 76 77 79 81 82 
 61 
 1 2 3 4 5 6 9 10 11 12 15 17 
 18 21 22 23 24 25 27 28 29 30 31 32 
 33 34 35 38 42 43 44 45 46 47 48 49 
 52 53 54 55 56 57 58 59 60 61 62 63 
 65 66 67 68 70 71 72 73 74 75 76 78 
 79 
 5 
 8 14 27 39 67 
 58 
 1 3 4 7 8 9 10 11 12 14 17 18 
 19 20 22 23 24 25 26 27 28 29 31 32 
 33 34 36 38 39 40 41 42 43 46 47 49 
 50 51 52 53 54 55 57 58 59 60 64 67 
 68 70 71 73 74 75 76 78 80 82 
 49 
 1 6 7 8 9 10 11 14 15 16 17 21 
 22 23 24 27 29 30 32 34 35 36 37 40 
 43 45 46 48 49 52 55 56 57 58 59 60 
 64 65 66 67 72 74 75 76 77 78 80 81 
 82 
 63 
 1 3 4 6 7 8 9 10 11 14 15 19 
 20 22 23 24 25 26 27 28 29 30 32 33 
 34 35 36 37 40 41 42 43 44 45 46 47 
 48 49 50 51 52 53 55 56 57 58 59 60 
 61 62 64 66 67 70 71 73 74 75 76 77 
 78 80 82 
 4 
 39 47 56 62 
 62 
 1 3 4 5 6 8 11 14 15 17 18 19 
 20 21 24 25 26 27 29 30 31 32 33 34 
 35 36 37 38 39 40 42 43 46 48 49 50 
 51 52 53 54 55 56 57 58 60 61 62 63 
 64 66 67 69 70 72 74 75 76 77 78 79 
 80 82 
 36 
 1 2 3 4 7 8 15 16 17 20 23 31 
 32 35 42 44 45 47 48 49 52 54 56 59 
 60 62 66 69 70 71 73 74 79 80 81 82 
 23 
 1 5 7 12 13 17 22 25 34 38 44 45 
 47 49 52 53 55 56 58 60 62 73 79 
 2 
 62 74 
 82 
 1 2 3 4 5 6 7 8 9 10 11 12 
 13 14 15 16 17 18 19 20 21 22 23 24 
 25 26 27 28 29 30 31 32 33 34 35 36 
 37 38 39 40 41 42 43 44 45 46 47 48 
 49 50 51 52 53 54 55 56 57 58 59 60 
 61 62 63 64 65 66 67 68 69 70 71 72 
 73 74 75 76 77 78 79 80 81 82 
 56 
 2 3 4 9 10 12 14 15 16 18 20 23 
 24 25 27 28 29 30 31 32 33 34 35 36 
 37 38 40 41 43 44 45 46 50 51 53 54 
 55 58 59 61 62 63 65 67 68 69 71 72 
 74 76 77 78 79 80 81 82 
 29 
 2 3 5 6 10 20 22 25 26 28 33 41 
 43 44 49 50 51 54 56 57 61 63 65 68 
 69 70 73 78 82 
 8 
 3 6 17 24 59 69 77 81 
 54 
 1 2 4 7 9 10 11 12 13 15 17 19 
 20 22 23 25 26 27 28 29 30 31 32 33 
 37 38 40 41 42 43 44 47 48 49 51 52 
 53 55 56 58 59 60 62 65 66 67 69 70 
 71 72 76 77 80 81 
 15 
 2 8 15 23 25 34 35 44 48 58 63 64 
 67 70 80 
 12 
 2 4 7 8 12 22 27 33 40 48 49 73 
 68 
 1 2 3 4 5 6 8 9 10 12 13 14 
 15 16 17 18 20 22 23 24 25 26 27 28 
 29 31 32 33 34 35 36 38 39 41 42 43 
 45 46 47 48 49 50 51 53 54 55 56 57 
 59 60 61 62 63 65 66 67 68 70 71 72 
 73 74 76 77 78 79 81 82 
 24 
 1 2 6 7 14 15 16 20 21 25 28 29 
 30 31 33 34 39 42 48 59 62 66 80 82 
 73 
 2 3 5 7 8 9 10 11 12 13 14 15 
 16 17 18 19 20 21 22 23 24 25 26 27 
 28 29 30 31 32 33 34 35 36 37 38 39 
 40 41 42 43 44 45 46 47 48 49 50 51 
 53 56 57 58 59 61 62 63 64 65 66 67 
 68 69 71 72 73 74 75 76 78 79 80 81 
 82 
 62 
 1 2 3 5 7 9 10 11 12 14 15 17 
 18 19 20 21 22 23 25 26 28 29 30 31 
 32 33 35 36 37 38 39 40 41 42 43 44 
 45 46 48 49 50 51 53 54 55 56 57 58 
 61 62 65 66 67 68 69 71 72 77 78 79 
 80 82 
 79 
 1 2 3 4 5 6 7 8 9 10 11 12 
 13 14 15 16 17 18 19 20 22 23 24 25 
 26 27 28 29 30 32 33 34 35 36 37 38 
 39 40 41 42 43 44 45 46 47 48 49 50 
 51 52 53 54 55 56 57 58 59 60 61 62 
 63 64 65 66 67 68 69 70 71 72 73 74 
 75 76 77 78 79 81 82 
 4 
 8 20 41 51 
 18 
 15 17 20 21 23 28 33 34 35 41 42 48 
 51 52 57 72 74 75 
 47 
 3 4 5 6 8 10 11 12 13 14 16 19 
 20 21 22 25 31 35 37 38 39 40 41 44 
 47 48 51 52 53 54 55 56 59 60 64 65 
 70 71 72 73 74 75 78 79 80 81 82 
 79 
 1 2 3 4 5 6 7 8 9 10 11 12 
 13 14 15 16 17 18 19 20 21 22 23 24 
 25 27 28 29 30 31 32 33 34 35 36 37 
 38 39 40 41 42 43 44 45 46 47 48 49 
 50 51 52 53 55 56 57 58 59 60 61 62 
 63 64 65 66 67 68 69 70 71 73 74 75 
 76 77 78 79 80 81 82 
 77 
 1 2 3 4 5 6 7 8 9 10 13 14 
 15 16 17 18 19 20 21 22 23 24 25 26 
 27 28 29 30 32 33 34 35 36 37 38 39 
 40 41 42 43 44 45 46 47 48 49 50 51 
 53 54 55 56 57 58 59 60 61 62 63 64 
 65 66 67 68 69 70 71 72 73 75 76 77 
 78 79 80 81 82 
 5 
 27 33 46 60 79 
 7 
 10 12 15 20 24 46 56 
 24 
 3 5 8 9 22 24 29 34 36 38 39 42 
 44 45 47 48 51 55 56 58 62 63 64 70 
 11 
 8 16 18 20 21 28 35 43 45 51 74 
 29 
 1 2 6 10 12 13 16 18 22 27 31 34 
 36 37 45 50 52 59 61 62 63 67 68 69 
 70 74 75 78 80 
 62 
 2 3 4 6 7 8 9 11 12 13 14 15 
 16 18 19 20 21 22 24 25 27 28 29 30 
 31 32 33 34 36 38 39 40 41 43 45 46 
 47 48 50 51 52 53 54 56 58 60 63 64 
 65 66 67 70 71 72 73 74 75 76 77 78 
 81 82 
 52 
 2 5 7 11 12 14 15 17 18 19 24 25 
 26 27 29 31 33 34 35 36 37 38 40 43 
 45 46 48 51 52 53 54 56 57 58 59 60 
 61 63 64 65 66 67 68 69 73 74 75 76 
 77 78 79 80 
 22 
 4 6 20 25 28 29 32 36 37 40 41 48 
 50 53 56 57 59 66 68 69 70 82 
 37 
 1 5 7 8 11 13 14 15 20 21 23 25 
 29 30 33 35 36 38 41 42 44 45 52 53 
 56 57 60 62 64 65 67 70 74 75 79 80 
 82 
 50 
 2 4 7 9 13 15 16 18 19 20 21 22 
 24 26 30 31 32 35 36 38 41 42 44 45 
 46 48 52 53 54 56 57 58 59 60 62 63 
 64 65 66 67 68 71 73 74 75 76 77 78 
 80 82 
 48 
 1 5 6 7 9 10 11 13 14 16 17 19 
 20 21 22 23 24 25 26 29 31 34 35 36 
 37 38 39 40 41 42 48 49 51 53 56 58 
 59 60 63 65 66 67 69 70 76 78 80 81 
 65 
 1 2 3 4 5 6 7 8 9 11 12 13 
 14 15 19 20 21 22 23 24 26 27 28 29 
 31 32 33 34 35 36 37 38 39 41 42 43 
 44 45 46 47 48 49 52 53 54 55 57 58 
 60 61 63 65 66 67 68 69 71 72 73 74 
 75 78 79 80 82 
 58 
 1 3 5 6 7 9 10 11 12 13 14 15 
 16 19 20 21 24 26 27 28 29 30 31 33 
 34 35 39 40 42 43 44 45 47 49 51 53 
 54 55 57 58 59 61 63 64 65 67 68 69 
 70 72 73 74 75 76 77 78 79 82 
 47 
 1 8 11 15 16 19 20 21 22 26 27 28 
 29 30 33 34 35 39 40 42 43 45 46 47 
 48 49 50 51 52 55 56 58 59 61 62 63 
 65 66 69 71 72 74 75 77 78 79 80 
 70 
 2 3 4 5 6 7 8 9 10 11 12 13 
 15 16 17 18 20 21 22 23 24 25 26 28 
 29 30 31 32 34 35 36 37 38 39 40 42 
 43 44 45 46 47 50 51 52 53 54 55 56 
 57 58 59 60 62 64 65 66 67 68 69 70 
 71 72 73 74 77 78 79 80 81 82 
 19 
 2 4 6 8 11 12 18 23 24 32 33 35 
 38 46 48 49 57 78 79 
 80 
 1 2 3 4 5 6 7 8 9 10 11 12 
 13 14 16 17 18 19 20 21 22 23 24 25 
 26 27 28 29 30 31 32 33 34 35 36 37 
 38 39 40 41 42 43 44 45 46 47 48 49 
 50 51 52 53 54 55 56 57 58 59 60 62 
 63 64 65 66 67 68 69 70 71 72 73 74 
 75 76 77 78 79 80 81 82 
 77 
 1 2 3 4 5 6 7 8 9 10 11 12 
 13 14 15 16 17 19 20 21 22 24 25 26 
 28 29 30 31 32 33 34 35 36 37 38 39 
 40 41 42 43 44 45 46 48 49 50 51 53 
 54 55 56 57 58 59 60 61 62 63 64 65 
 66 67 68 69 70 71 72 73 74 75 76 77 
 78 79 80 81 82 
 11 
 4 9 20 23 28 45 53 56 57 69 76 
 3 
 15 55 71 
 30 
 2 5 8 9 11 16 26 27 31 33 34 36 
 38 39 50 52 53 58 60 61 62 63 64 68 
 72 73 78 79 81 82 
 26 
 5 6 12 14 17 18 22 27 34 35 38 41 
 42 44 45 49 51 52 54 55 58 60 61 71 
 75 76 
 13 
 1 11 16 28 33 34 38 39 47 61 64 76 
 82 
 23 
 4 8 11 15 16 21 26 27 33 36 40 42 
 43 46 48 51 54 55 61 62 66 73 77 
 18 
 5 16 21 22 24 25 26 27 32 35 48 51 
 55 58 62 69 74 75 
 49 
 5 7 8 10 11 13 15 17 18 20 21 23 
 24 25 27 28 29 31 35 36 37 38 40 42 
 43 44 48 49 50 53 55 56 58 60 61 62 
 63 64 66 67 68 70 74 76 78 79 80 81 
 82 
 50 
 1 2 3 4 5 6 10 11 13 14 16 17 
 18 19 24 25 26 29 30 31 32 34 35 36 
 37 39 40 41 42 43 46 47 48 50 51 52 
 53 56 57 59 61 62 63 67 68 72 75 76 
 78 79 
 41 
 1 3 4 13 14 15 16 17 21 24 27 28 
 30 32 33 34 35 37 38 42 45 46 48 49 
 50 53 54 56 57 61 64 65 66 72 73 75 
 76 77 79 80 82 
 81 
 1 2 3 4 5 6 7 8 9 10 11 12 
 13 14 15 16 17 18 19 20 21 22 23 24 
 25 26 27 28 29 30 31 32 33 34 35 36 
 37 38 39 40 41 42 43 44 45 46 47 48 
 49 50 51 52 53 54 55 56 57 58 59 60 
 61 62 63 64 65 66 67 68 69 70 71 72 
 73 75 76 77 78 79 80 81 82 
 45 
 1 3 5 7 8 10 12 15 16 17 18 19 
 20 21 22 26 31 32 34 36 39 40 41 42 
 44 45 46 48 50 51 52 53 57 59 60 62 
 64 65 66 72 73 76 79 81 82 
 49 
 1 2 3 4 5 6 7 10 11 12 14 15 
 19 20 21 22 23 24 25 26 27 29 30 34 
 36 37 39 40 43 44 45 46 48 49 50 52 
 56 57 59 61 62 68 69 73 74 76 77 80 
 82 
 27 
 3 7 8 9 12 19 20 21 23 29 32 34 
 35 36 38 40 46 57 60 62 65 68 69 70 
 71 73 80 
 36 
 1 6 7 9 10 11 17 19 21 27 30 31 
 38 39 43 45 46 47 48 49 53 57 60 61 
 65 69 71 72 73 74 75 76 77 78 80 82 
 30 
 2 3 9 10 13 21 22 25 26 28 32 33 
 36 38 39 40 44 47 51 59 62 64 70 72 
 75 77 78 79 81 82 
 51 
 2 3 4 5 8 9 10 11 13 15 16 18 
 19 22 26 27 28 29 32 33 34 36 37 41 
 42 43 45 48 49 50 51 54 56 57 59 60 
 61 62 65 66 69 70 71 72 74 75 76 78 
 79 80 82 
 68 
 1 2 3 5 6 7 9 10 11 12 13 14 
 15 16 19 20 22 23 24 25 26 27 29 30 
 31 32 33 34 35 36 38 39 40 42 44 46 
 47 48 49 50 51 52 53 55 56 57 58 59 
 60 61 62 63 64 65 66 67 68 70 71 72 
 73 74 75 76 77 80 81 82 
 71 
 1 2 3 4 5 6 7 8 9 10 11 12 
 13 14 17 19 20 21 22 23 24 25 26 27 
 28 29 31 35 36 37 38 39 40 41 42 43 
 44 45 46 47 49 50 51 52 53 54 55 56 
 57 58 59 61 62 63 64 65 66 67 69 70 
 71 72 74 75 76 77 78 79 80 81 82 
 33 
 1 2 7 10 11 13 16 18 19 20 25 26 
 28 30 31 33 34 35 36 37 38 40 41 42 
 47 51 52 57 59 63 64 71 81 
 15 
 6 13 15 19 20 37 43 56 60 61 65 67 
 70 71 82 
 26 
 2 6 7 9 11 16 21 22 24 33 35 37 
 40 44 46 54 55 57 60 61 64 68 69 74 
 79 80 
 52 
 1 2 3 5 6 8 9 10 11 12 14 15 
 16 17 19 21 22 23 24 25 26 27 28 30 
 33 34 35 37 38 39 40 41 43 45 47 48 
 49 51 52 53 55 56 57 61 67 69 70 71 
 77 79 81 82 
 61 
 2 3 4 5 6 7 8 9 10 12 15 17 
 18 19 21 23 24 25 26 28 29 30 31 32 
 33 34 36 37 39 40 41 42 43 44 45 46 
 48 49 50 51 54 56 57 60 61 62 63 64 
 66 67 68 71 72 74 75 76 77 78 79 80 
 82 
 49 
 6 7 8 9 11 13 14 16 17 19 20 22 
 24 25 26 27 28 29 30 34 35 41 42 45 
 46 51 52 53 54 55 56 57 59 60 61 64 
 65 66 67 68 69 71 72 75 76 77 78 81 
 82 
 60 
 3 4 5 7 10 11 12 13 14 16 17 19 
 20 21 22 23 24 25 26 28 29 30 31 32 
 33 36 37 40 41 44 45 47 48 49 51 52 
 53 54 55 56 57 58 59 60 61 62 63 65 
 67 69 70 72 73 74 76 77 78 80 81 82 
 54 
 1 2 3 4 5 7 8 9 10 12 15 18 
 23 24 25 27 28 30 31 32 33 36 39 42 
 43 44 45 46 49 50 51 52 55 56 58 59 
 60 61 62 63 64 66 67 68 69 70 72 73 
 75 76 77 78 80 82 
 45 
 1 2 9 10 13 15 16 17 18 20 22 24 
 25 27 29 30 34 35 36 38 40 42 44 47 
 48 50 55 58 59 61 62 63 64 67 69 70 
 71 72 73 75 76 77 80 81 82 
 75 
 2 3 4 5 6 8 9 10 11 12 13 14 
 15 16 17 18 19 20 21 22 23 24 25 26 
 27 28 29 31 32 33 34 35 36 37 38 39 
 40 41 42 43 44 45 46 48 49 50 51 52 
 53 54 55 56 58 59 60 61 62 63 65 67 
 68 69 70 71 72 73 74 75 76 77 78 79 
 80 81 82 
 28 
 14 20 21 26 28 31 35 36 38 39 40 42 
 45 49 52 54 59 60 61 62 63 65 66 73 
 74 79 80 82 
 59 
 1 2 3 4 6 7 8 9 11 12 13 14 
 15 16 18 19 21 22 23 24 25 27 31 34 
 35 36 37 38 39 40 41 42 43 45 46 50 
 51 52 53 54 55 57 58 60 61 62 63 64 
 65 66 68 69 70 72 73 74 76 79 80 
 15 
 2 5 13 20 22 27 47 48 51 57 58 60 
 61 65 73 
 68 
 1 3 4 5 6 7 8 9 10 11 12 13 
 14 15 16 17 18 20 21 22 23 25 26 27 
 28 29 30 31 32 33 34 35 36 37 39 42 
 43 45 47 48 49 51 52 53 54 55 56 57 
 58 59 60 61 63 65 68 69 70 71 72 74 
 75 76 77 78 79 80 81 82 
 44 
 1 3 4 6 9 10 11 14 17 20 21 23 
 24 26 27 28 30 31 32 34 35 37 41 42 
 43 44 45 46 51 52 54 57 58 60 61 62 
 63 65 67 74 76 79 81 82 
 22 
 1 5 6 8 11 15 20 23 31 33 39 42 
 51 55 56 59 66 67 69 71 76 78 
 37 
 1 3 5 8 9 11 13 14 17 18 20 24 
 26 27 29 30 37 40 43 45 46 49 51 53 
 57 58 59 61 62 64 65 69 72 74 78 79 
 81 
 20 
 11 16 19 21 28 30 33 38 42 45 47 50 
 55 57 58 62 72 74 77 81 
 45 
 1 2 4 7 8 10 11 12 15 19 21 24 
 25 27 28 35 36 37 40 41 43 44 45 46 
 48 51 52 54 59 60 61 62 64 66 67 69 
 70 72 73 75 76 79 80 81 82 
 60 
 1 2 4 5 6 7 12 13 14 15 16 17 
 20 21 22 23 24 25 26 27 30 31 32 35 
 36 37 38 40 41 42 43 44 45 46 47 50 
 51 52 53 56 57 59 60 61 62 66 67 68 
 69 70 72 73 74 75 76 77 78 79 81 82 
 32 
 1 2 3 7 11 13 15 16 19 24 27 28 
 35 37 38 47 48 50 53 56 58 59 61 65 
 69 71 72 73 74 77 80 81 
 69 
 1 2 3 5 7 9 10 11 12 13 14 15 
 16 17 18 19 20 23 24 25 26 27 29 30 
 31 32 33 34 35 36 37 38 41 42 43 44 
 45 46 47 48 49 50 51 52 53 54 55 56 
 57 58 59 60 61 62 63 65 66 67 69 70 
 71 72 74 76 77 78 80 81 82 
 15 
 3 7 11 17 22 26 29 32 40 46 49 61 
 67 75 80 
 